[VALIDATOR STDOUT]
Checking plan: /home/fjl2401/Safety-gen/benchmark_problems/grippers/optic_results/grippers-n2-r19-o17-s17001.plan
Plan executed successfully - checking goal
Goal not satisfied
Plan invalid


Failed plans:
 /home/fjl2401/Safety-gen/benchmark_problems/grippers/optic_results/grippers-n2-r19-o17-s17001.plan
